write_once("In Init") {
    units real
    atom_style full
    bond_style harmonic
    angle_style harmonic
    dihedral_style opls
    improper_style harmonic
    kspace_style ewald 1.0e-4
    pair_style lj/cut/coul/long 12.5
    pair_modify mix arithmetic
    special_bonds lj/coul 0.0 0.0 0.5
}
